NAME : XML100_3165_19
DIMENSION : 101
NB_CLUSTERS : 33
CLUSTERING_ALG : KMeans
CLUSTERING_PARAMS : k(33)
CLUSTERS
1 0
2 1 4 37 54 87
3 15 32 42 88 95
4 38 71 75 84 85
5 2 63
6 30 43 57
7 19 35 39 73
8 34 78 83 91
9 52 76
10 53 92
11 6 31
12 44 74 79
13 56 80
14 3 11 58
15 24 48 62 96 97
16 67 70 86
17 23 25 49 59
18 14 64
19 9 55 60
20 16 51 81
21 26 46 77 98
22 7 17 89
23 18 82
24 13 90 94
25 27 29 36
26 8 41 99
27 20 65 66
28 5 28
29 33 50 72 93
30 22 47 61
31 12 68 69
32 45 100
33 10 21 40
EOF